%%% Small test 	%%%
%% Produces 1 plate.
%% 2020/12/04: It takes about 1s 8 msec

%% Plate dimentions: (this is a 96-well plate)
num_rows = 8; %% height
num_cols = 12; %% width


horizontal_cell_lines = 1;
vertical_cell_lines = 1;

allow_empty_wells = false;

size_empty_edge = 1;

% New and used!
concentrations_on_different_rows = true;
concentrations_on_different_columns = true;

% New and unused! (Restriction: replicates_on_different_plates /\ replicates_on_same_plate == false)
replicates_on_different_plates = true;
replicates_on_same_plate = false;



%%% Compounds %%%
compounds = 4; %% number of drugs/compounds
compound_concentrations	 = [ 4 | i in 1..compounds]; 
compound_replicates	 = [ 2 | i in 1..compounds];

compound_names = ["comp\(i)" | i in 1..compounds];
compound_concentration_names = [|"0.3", "1", "3", "5"|"0.3", "1", "3", "5"|"0.3", "1", "3", "5"|"0.3", "1", "3", "5"|];

compound_concentration_indicators = ["" | i in 1..4]; 


%%% Combinations %%%
combinations = 	0;
combination_names = [];
combination_concentration_names = [];
combination_concentrations = 0;


%%% Controls %%%
num_controls = 4;
control_replicates = [8,8,8,4];

control_concentrations = [1,1,1,1];
control_names = ["pos","neg","blank","dmso"];
control_concentration_names =  array2d(1..num_controls, 1..1,["cont\(i)-conc\(1)" | i in 1..num_controls]);    
  
